c Oregon-1: AS peering information inferred from Oregon route-views BGP data, from May 26 2001 https://snap.stanford.edu/data/Oregon-1.html
p edge 1025 1085
e 1 2
e 1 55
e 1 71
e 1 102
e 1 147
e 1 184
e 1 200
e 1 299
e 1 324
e 1 377
e 1 504
e 1 543
e 1 562
e 1 626
e 1 776
e 1 816
e 1 864
e 1 881
e 1 887
e 1 68
e 1 937
e 1 944
e 1 978
e 3 4
e 3 28
e 3 49
e 3 52
e 3 64
e 3 325
e 3 333
e 3 453
e 3 168
e 3 492
e 3 15
e 3 521
e 3 564
e 3 570
e 3 586
e 3 618
e 3 623
e 3 705
e 3 707
e 3 708
e 3 66
e 3 731
e 3 512
e 3 745
e 3 770
e 3 771
e 3 354
e 3 805
e 3 885
e 3 914
e 3 966
e 3 967
e 3 980
e 5 6
e 5 37
e 5 86
e 5 88
e 5 130
e 5 131
e 5 145
e 5 150
e 5 151
e 5 157
e 5 166
e 5 167
e 5 170
e 5 180
e 5 192
e 5 204
e 5 208
e 5 210
e 5 211
e 5 214
e 5 221
e 5 227
e 5 230
e 5 237
e 5 240
e 5 241
e 5 242
e 5 244
e 5 258
e 5 269
e 5 271
e 5 276
e 5 277
e 5 280
e 5 292
e 5 259
e 5 296
e 5 300
e 5 307
e 5 313
e 5 318
e 5 323
e 5 327
e 5 331
e 5 340
e 5 358
e 5 362
e 5 364
e 5 365
e 5 391
e 5 394
e 5 402
e 5 407
e 5 412
e 5 415
e 5 419
e 5 426
e 5 428
e 5 430
e 5 444
e 5 449
e 5 452
e 5 455
e 5 456
e 5 460
e 5 472
e 5 149
e 5 474
e 5 480
e 5 482
e 5 485
e 5 486
e 5 489
e 5 501
e 5 518
e 5 528
e 5 552
e 5 556
e 5 561
e 5 291
e 5 579
e 5 584
e 5 590
e 5 591
e 5 595
e 5 604
e 5 606
e 5 26
e 5 614
e 5 620
e 5 622
e 5 632
e 5 633
e 5 639
e 5 642
e 5 643
e 5 649
e 5 650
e 5 655
e 5 657
e 5 669
e 5 670
e 5 686
e 5 262
e 5 7
e 5 699
e 5 713
e 5 717
e 5 723
e 5 726
e 5 734
e 5 738
e 5 739
e 5 748
e 5 750
e 5 754
e 5 785
e 5 794
e 5 795
e 5 797
e 5 803
e 5 811
e 5 813
e 5 818
e 5 826
e 5 190
e 5 831
e 5 834
e 5 837
e 5 847
e 5 850
e 5 852
e 5 853
e 5 856
e 5 862
e 5 40
e 5 865
e 5 877
e 5 897
e 5 900
e 5 907
e 5 908
e 5 917
e 5 110
e 5 183
e 5 919
e 5 933
e 5 935
e 5 135
e 5 87
e 5 953
e 5 863
e 5 972
e 5 991
e 5 998
e 5 139
e 5 1002
e 5 1005
e 5 1008
e 5 1009
e 5 1014
e 5 1020
e 5 1024
e 7 8
e 7 23
e 7 31
e 7 32
e 7 70
e 7 142
e 7 148
e 7 178
e 7 181
e 7 194
e 7 199
e 7 209
e 7 223
e 7 225
e 7 226
e 7 229
e 7 270
e 7 285
e 7 293
e 7 321
e 7 322
e 7 347
e 7 357
e 7 366
e 7 392
e 7 405
e 7 432
e 7 440
e 7 462
e 7 473
e 7 477
e 7 488
e 7 503
e 7 530
e 7 534
e 7 549
e 7 550
e 7 230
e 7 566
e 7 96
e 7 572
e 7 582
e 7 592
e 7 607
e 7 619
e 7 621
e 7 122
e 7 424
e 7 652
e 7 659
e 7 135
e 7 126
e 7 681
e 7 219
e 7 651
e 7 379
e 7 710
e 7 711
e 7 720
e 7 733
e 7 742
e 7 743
e 7 757
e 7 759
e 7 761
e 7 766
e 7 775
e 7 787
e 7 809
e 7 44
e 7 830
e 7 846
e 7 854
e 7 910
e 7 81
e 7 941
e 7 367
e 7 961
e 7 969
e 7 977
e 7 986
e 7 995
e 7 690
e 7 1013
e 7 1018
e 7 1021
e 9 10
e 9 66
e 9 1006
e 11 12
e 11 13
e 11 61
e 11 236
e 11 343
e 11 381
e 11 384
e 11 388
e 11 414
e 11 497
e 11 527
e 11 554
e 11 575
e 11 784
e 11 286
e 11 814
e 11 173
e 11 435
e 12 144
e 14 15
e 14 18
e 14 42
e 14 136
e 14 152
e 14 193
e 14 287
e 14 354
e 14 409
e 14 498
e 14 531
e 14 551
e 14 576
e 14 692
e 14 694
e 14 695
e 14 721
e 14 727
e 14 71
e 14 80
e 14 840
e 14 81
e 16 17
e 16 104
e 16 175
e 16 339
e 16 360
e 16 163
e 16 644
e 18 19
e 18 22
e 18 48
e 18 51
e 18 74
e 18 103
e 18 112
e 18 132
e 18 146
e 18 155
e 18 156
e 18 40
e 18 187
e 18 190
e 18 196
e 18 228
e 18 246
e 18 253
e 18 249
e 18 266
e 18 272
e 18 288
e 18 332
e 18 345
e 18 346
e 18 361
e 18 368
e 18 114
e 18 376
e 18 378
e 18 389
e 18 395
e 18 422
e 18 450
e 18 470
e 18 487
e 18 131
e 18 542
e 18 548
e 18 563
e 18 569
e 18 581
e 18 597
e 18 602
e 18 605
e 18 627
e 18 631
e 18 397
e 18 656
e 18 660
e 18 703
e 18 716
e 18 729
e 18 697
e 18 763
e 18 764
e 18 772
e 18 778
e 18 800
e 18 827
e 18 890
e 18 901
e 18 924
e 18 931
e 18 946
e 18 950
e 18 955
e 18 964
e 18 990
e 18 999
e 18 1007
e 18 201
e 18 1017
e 20 21
e 20 56
e 20 335
e 20 341
e 20 359
e 20 416
e 20 533
e 20 557
e 20 603
e 20 824
e 20 841
e 20 875
e 20 878
e 20 916
e 20 925
e 20 948
e 20 956
e 20 960
e 20 911
e 24 25
e 24 83
e 24 98
e 24 53
e 24 439
e 24 446
e 24 30
e 24 149
e 24 529
e 24 573
e 24 371
e 24 640
e 24 701
e 24 173
e 24 345
e 24 108
e 24 899
e 24 929
e 24 975
e 26 27
e 26 305
e 28 66
e 29 30
e 29 507
e 29 588
e 29 804
e 33 34
e 33 508
e 33 902
e 34 40
e 35 36
e 35 50
e 35 120
e 35 129
e 35 168
e 35 89
e 35 191
e 35 213
e 35 302
e 35 310
e 35 348
e 35 356
e 35 431
e 35 96
e 35 461
e 35 499
e 35 500
e 35 502
e 35 540
e 35 541
e 35 559
e 35 589
e 35 176
e 35 610
e 35 584
e 35 648
e 35 651
e 35 661
e 35 679
e 35 685
e 35 700
e 35 706
e 35 740
e 35 746
e 35 755
e 35 783
e 35 792
e 35 796
e 35 843
e 35 866
e 35 906
e 35 926
e 35 959
e 35 891
e 37 66
e 38 39
e 38 85
e 38 141
e 38 239
e 38 243
e 38 245
e 38 263
e 38 265
e 38 273
e 38 278
e 38 286
e 38 336
e 38 344
e 38 451
e 38 442
e 38 77
e 38 547
e 38 565
e 38 342
e 38 612
e 38 613
e 38 314
e 38 624
e 38 663
e 38 666
e 38 108
e 38 722
e 38 749
e 38 359
e 38 767
e 38 790
e 38 798
e 38 374
e 38 807
e 38 810
e 38 874
e 38 883
e 38 895
e 38 298
e 38 421
e 38 186
e 38 757
e 38 963
e 38 971
e 38 984
e 38 206
e 38 1016
e 40 41
e 40 89
e 40 72
e 40 154
e 40 158
e 40 73
e 40 197
e 40 233
e 40 406
e 40 421
e 40 273
e 40 464
e 40 466
e 40 537
e 40 585
e 40 637
e 40 673
e 40 682
e 40 687
e 40 747
e 40 828
e 40 838
e 40 860
e 40 893
e 40 61
e 40 577
e 42 43
e 42 96
e 42 179
e 42 257
e 42 294
e 42 458
e 42 494
e 42 65
e 42 538
e 42 675
e 42 206
e 42 817
e 42 855
e 44 45
e 44 65
e 44 165
e 44 382
e 44 399
e 44 447
e 44 693
e 44 712
e 44 762
e 46 47
e 46 97
e 46 119
e 46 149
e 46 264
e 46 304
e 46 320
e 46 476
e 46 539
e 46 560
e 46 587
e 46 689
e 46 802
e 46 821
e 46 844
e 46 868
e 46 870
e 46 879
e 46 888
e 46 918
e 46 951
e 46 993
e 53 54
e 53 678
e 53 124
e 55 203
e 57 58
e 57 238
e 57 295
e 58 116
e 58 143
e 58 153
e 58 268
e 58 463
e 59 60
e 59 303
e 59 571
e 59 81
e 59 965
e 59 1022
e 61 912
e 61 1019
e 62 63
e 62 231
e 66 67
e 66 483
e 66 301
e 66 609
e 66 89
e 66 936
e 66 354
e 66 185
e 67 137
e 67 96
e 68 69
e 68 580
e 71 123
e 71 198
e 71 203
e 71 173
e 71 353
e 71 413
e 71 510
e 71 617
e 71 76
e 71 788
e 71 259
e 71 820
e 71 1003
e 71 1004
e 72 73
e 73 442
e 73 273
e 75 76
e 75 231
e 75 267
e 75 369
e 75 457
e 75 475
e 75 493
e 75 636
e 75 777
e 75 983
e 75 992
e 77 78
e 77 113
e 77 212
e 77 869
e 79 80
e 81 82
e 81 84
e 81 87
e 81 93
e 81 99
e 81 107
e 81 118
e 81 128
e 81 135
e 81 161
e 81 162
e 81 195
e 81 205
e 81 224
e 81 215
e 81 255
e 81 262
e 81 274
e 81 279
e 81 291
e 81 309
e 81 370
e 81 387
e 81 393
e 81 434
e 81 454
e 81 484
e 81 505
e 81 417
e 81 544
e 81 555
e 81 594
e 81 598
e 81 599
e 81 608
e 81 635
e 81 719
e 81 478
e 81 736
e 81 218
e 81 765
e 81 782
e 81 806
e 81 832
e 81 851
e 81 863
e 81 871
e 81 882
e 81 889
e 81 928
e 81 316
e 81 945
e 81 957
e 81 968
e 81 976
e 81 1010
e 81 1012
e 89 90
e 89 117
e 89 159
e 89 217
e 89 254
e 89 275
e 89 363
e 89 385
e 89 411
e 89 356
e 89 427
e 89 625
e 89 658
e 89 384
e 89 714
e 89 735
e 89 752
e 89 760
e 89 780
e 89 815
e 89 835
e 89 849
e 89 867
e 89 886
e 89 898
e 89 904
e 89 108
e 89 911
e 89 922
e 89 930
e 89 954
e 89 989
e 89 915
e 91 92
e 91 390
e 91 798
e 91 962
e 93 791
e 94 95
e 94 709
e 94 153
e 96 149
e 96 252
e 96 396
e 96 441
e 96 535
e 96 684
e 96 822
e 96 857
e 96 952
e 96 981
e 96 985
e 98 641
e 100 101
e 100 301
e 105 106
e 105 124
e 105 442
e 105 596
e 105 137
e 105 756
e 105 774
e 105 793
e 105 836
e 105 130
e 107 222
e 107 163
e 108 109
e 110 111
e 110 519
e 114 115
e 115 429
e 115 724
e 121 122
e 121 524
e 121 674
e 121 676
e 124 125
e 124 169
e 124 306
e 124 319
e 124 330
e 124 342
e 124 351
e 124 352
e 124 367
e 124 465
e 124 506
e 124 514
e 124 691
e 124 741
e 124 744
e 124 242
e 124 799
e 124 861
e 124 884
e 124 467
e 124 921
e 124 429
e 124 987
e 124 994
e 124 486
e 124 603
e 126 127
e 127 515
e 133 134
e 133 671
e 137 138
e 137 160
e 137 349
e 137 401
e 137 286
e 137 352
e 137 638
e 137 600
e 137 235
e 137 940
e 137 284
e 139 140
e 139 667
e 149 220
e 149 350
e 149 481
e 149 520
e 149 574
e 149 583
e 149 645
e 149 683
e 149 696
e 149 730
e 149 768
e 149 812
e 149 905
e 149 913
e 149 982
e 149 1000
e 154 872
e 159 281
e 163 164
e 163 251
e 163 558
e 163 578
e 163 958
e 163 996
e 171 172
e 171 469
e 171 786
e 171 940
e 173 174
e 173 459
e 173 629
e 173 702
e 173 848
e 176 177
e 181 232
e 182 183
e 182 647
e 182 753
e 182 1025
e 183 408
e 183 665
e 185 186
e 185 467
e 188 189
e 188 646
e 188 808
e 188 819
e 189 308
e 189 445
e 189 215
e 201 202
e 201 400
e 201 997
e 203 334
e 206 207
e 206 312
e 206 858
e 215 216
e 215 662
e 215 845
e 216 567
e 218 219
e 218 442
e 218 611
e 218 664
e 218 688
e 218 923
e 218 943
e 231 383
e 231 546
e 231 630
e 231 704
e 231 769
e 231 979
e 234 235
e 237 973
e 238 859
e 242 261
e 242 615
e 242 751
e 242 842
e 247 248
e 247 326
e 247 371
e 247 463
e 247 718
e 247 1023
e 249 250
e 254 256
e 254 433
e 254 496
e 254 779
e 254 934
e 259 260
e 259 425
e 259 289
e 259 932
e 259 523
e 281 282
e 281 386
e 281 443
e 281 536
e 281 715
e 281 758
e 281 947
e 281 328
e 283 284
e 285 873
e 286 311
e 286 448
e 286 773
e 286 903
e 289 290
e 296 880
e 297 298
e 299 355
e 301 468
e 301 532
e 301 553
e 301 616
e 301 668
e 301 909
e 314 315
e 314 410
e 314 438
e 314 894
e 314 896
e 316 317
e 316 672
e 317 373
e 328 329
e 337 338
e 337 437
e 337 491
e 337 509
e 337 511
e 337 403
e 339 829
e 343 801
e 345 372
e 352 577
e 371 403
e 372 781
e 374 375
e 375 1015
e 379 380
e 385 420
e 387 653
e 397 398
e 403 404
e 403 1011
e 417 418
e 417 939
e 423 424
e 423 671
e 435 436
e 439 483
e 440 593
e 441 545
e 442 471
e 442 495
e 442 1001
e 446 949
e 467 577
e 467 988
e 471 915
e 475 490
e 478 479
e 493 825
e 512 513
e 512 628
e 516 517
e 516 804
e 522 523
e 523 680
e 525 526
e 525 702
e 559 732
e 566 942
e 567 568
e 600 601
e 600 634
e 607 823
e 623 789
e 628 833
e 640 672
e 653 654
e 653 728
e 653 737
e 672 938
e 676 677
e 690 691
e 697 698
e 697 839
e 697 876
e 697 927
e 719 974
e 724 725
e 820 970
e 838 920
e 891 892
l 384
t 95 829
